873134
42, 63, 30, 10, 36, 97, 35, 61, 16, 83, 56, 18, 41, 69, 6, 49, 13, 68, 80, 99, 58, 82, 15, 77, 88, 96, 75, 50, 38, 76, 87, 48, 37, 1, 70, 74, 32, 9, 33, 57, 47, 95, 66, 7, 4, 45, 86, 81, 14, 39, 92, 84, 22, 73, 25, 78, 51, 79, 29, 40, 94, 26, 17, 12, 19, 59, 90, 24, 43, 52, 65, 54, 98, 23, 11, 28, 71, 34, 46, 67, 27, 2, 64, 5, 3, 85, 89, 8, 53, 91, 44, 55, 72, 93, 62, 31, 60, 21, 20
